
Gurobi 7.5.2 (win64, Python) logging started 04/13/18 11:56:27

Academic license - for non-commercial use only

Gurobi 7.5.2 (win64, Python) logging started 04/13/18 11:58:46

Academic license - for non-commercial use only
